* ENCODING=ISO-8859-1
NAME          CPLEX
ROWS
 N  obj1    
 G  c1      
 G  c2      
 G  c3      
 G  c4      
 G  c5      
 G  c6      
 G  c7      
 G  c8      
 G  c9      
 G  c10     
 G  c11     
 G  c12     
 G  c13     
 G  c14     
 G  c15     
 G  c16     
 G  c17     
 G  c18     
 G  c19     
 G  c20     
 G  c21     
 G  c22     
 G  c23     
 G  c24     
 G  c25     
 G  c26     
 G  c27     
 G  c28     
 G  c29     
 G  c30     
 G  c31     
 G  c32     
 G  c33     
 G  c34     
 G  c35     
 G  c36     
 G  c37     
 G  c38     
 G  c39     
 G  c40     
 G  c41     
 G  c42     
 G  c43     
 G  c44     
 G  c45     
 G  c46     
 G  c47     
 G  c48     
 G  c49     
 G  c50     
COLUMNS
    MARK0000  'MARKER'                 'INTORG'
    x1        obj1                            1
    x1        c12                           493
    x1        c21                           276
    x1        c25                           545
    x1        c31                           601
    x1        c36                           221
    x2        obj1                            1
    x2        c6                            968
    x2        c7                            929
    x2        c9                            519
    x2        c24                           165
    x2        c26                           560
    x2        c35                           929
    x2        c43                           857
    x2        c49                           287
    x3        obj1                            1
    x3        c1                            285
    x3        c16                           391
    x3        c27                           698
    x3        c38                           434
    x3        c48                           422
    x3        c49                           253
    x4        obj1                            1
    x4        c19                           720
    x4        c26                           558
    x4        c35                           309
    x4        c37                           385
    x5        obj1                            1
    x5        c3                            915
    x5        c12                           485
    x5        c16                           440
    x5        c17                           170
    x5        c33                           488
    x5        c34                           498
    x5        c36                           227
    x5        c41                           976
    x6        obj1                            1
    x6        c2                            802
    x6        c16                           726
    x6        c22                           270
    x6        c34                           404
    x7        obj1                            1
    x7        c13                           712
    x7        c27                           905
    x7        c44                           546
    x8        obj1                            1
    x8        c1                            502
    x8        c4                            283
    x8        c14                           299
    x8        c17                           505
    x8        c27                           951
    x8        c28                           633
    x8        c34                           384
    x9        obj1                            1
    x9        c9                            672
    x9        c12                           161
    x9        c26                           809
    x9        c40                           913
    x9        c47                           967
    x10       obj1                            1
    x10       c15                           455
    x10       c17                           305
    x10       c42                           607
    x11       obj1                            1
    x11       c11                           227
    x11       c32                           291
    x11       c33                           308
    x12       obj1                            1
    x12       c2                            284
    x12       c40                           889
    x12       c43                           262
    x12       c45                           923
    x13       obj1                            1
    x13       c1                            540
    x13       c8                            566
    x13       c29                           627
    x13       c37                           745
    x13       c41                           637
    x14       obj1                            1
    x14       c25                           823
    x14       c27                           756
    x14       c28                           141
    x14       c32                           431
    x15       obj1                            1
    x15       c1                            673
    x15       c4                            261
    x15       c20                           582
    x15       c22                           370
    x15       c35                           657
    x15       c39                           353
    x15       c40                           974
    x15       c50                           413
    x16       obj1                            1
    x16       c29                           591
    x16       c38                           490
    x16       c45                           840
    x17       obj1                            1
    x17       c2                            899
    x17       c18                           991
    x17       c43                           524
    x17       c48                           312
    x18       obj1                            1
    x18       c9                            787
    x18       c18                           765
    x18       c19                           612
    x18       c28                           446
    x18       c30                           351
    x18       c41                           690
    x18       c44                           946
    x19       obj1                            1
    x19       c23                           803
    x19       c25                           225
    x19       c46                           869
    x20       obj1                            1
    x20       c4                            307
    x20       c15                           205
    x20       c30                           262
    x20       c32                           192
    x20       c35                           359
    x21       obj1                            1
    x21       c21                           946
    x21       c23                           352
    x21       c39                           372
    x22       obj1                            1
    x22       c6                            999
    x22       c8                            408
    x22       c11                           748
    x22       c20                           870
    x22       c22                           276
    x23       obj1                            1
    x23       c8                            224
    x23       c25                           155
    x23       c30                           113
    x23       c41                           100
    x24       obj1                            1
    x24       c3                            707
    x24       c23                           268
    x24       c34                           461
    x24       c49                           136
    x25       obj1                            1
    x25       c9                            631
    x25       c34                           785
    x25       c36                           704
    x25       c44                           586
    x26       obj1                            1
    x26       c14                           521
    x26       c15                           293
    x26       c37                           903
    x26       c45                           810
    x26       c49                           403
    x27       obj1                            1
    x27       c13                           445
    x27       c38                           693
    x27       c46                           256
    x28       obj1                            1
    x28       c3                            743
    x28       c13                           244
    x28       c15                           541
    x28       c19                           776
    x28       c21                           740
    x28       c25                           958
    x28       c29                           268
    x28       c31                           565
    x28       c43                           846
    x29       obj1                            1
    x29       c10                           675
    x29       c17                           941
    x29       c39                           684
    x30       obj1                            1
    x30       c2                            361
    x30       c15                           359
    x30       c17                           491
    x30       c21                           369
    x30       c48                           902
    x31       obj1                            1
    x31       c3                            995
    x31       c11                           685
    x31       c20                           328
    x31       c25                           419
    x31       c35                           966
    x31       c36                           141
    x31       c40                           569
    x32       obj1                            1
    x32       c10                           555
    x32       c26                           671
    x32       c32                           517
    x32       c47                           134
    x33       obj1                            1
    x33       c19                           249
    x33       c41                           876
    x33       c47                           735
    x34       obj1                            1
    x34       c31                           209
    x35       obj1                            1
    x35       c7                            332
    x35       c8                            957
    x35       c10                           692
    x35       c13                           341
    x35       c16                           645
    x35       c34                           206
    x35       c41                           897
    x35       c42                           269
    x36       obj1                            1
    x36       c10                           658
    x36       c22                           844
    x36       c42                           543
    x36       c50                           524
    x37       obj1                            1
    x37       c2                            668
    x37       c4                            514
    x37       c6                            109
    x37       c9                            472
    x37       c14                           725
    x37       c39                           830
    x37       c49                           375
    x38       obj1                            1
    x38       c5                            275
    x38       c9                            936
    x38       c18                           131
    x38       c30                           578
    x38       c33                           428
    x38       c34                           438
    x39       obj1                            1
    x39       c15                           429
    x39       c17                           326
    x39       c44                           506
    x40       obj1                            1
    x40       c2                            394
    x40       c5                            280
    x40       c23                           807
    x40       c24                           591
    x40       c39                           469
    x41       obj1                            1
    x41       c3                            428
    x41       c16                           536
    x41       c21                           508
    x41       c24                           401
    x41       c50                           544
    x42       obj1                            1
    x42       c16                           363
    x42       c27                           306
    x42       c28                           626
    x42       c29                           744
    x42       c30                           255
    x42       c38                           158
    x42       c43                           368
    x43       obj1                            1
    x43       c13                           498
    x43       c22                           731
    x43       c49                           249
    x44       obj1                            1
    x44       c3                            173
    x44       c19                           753
    x44       c30                           160
    x44       c31                           254
    x45       obj1                            1
    x45       c3                            723
    x45       c21                           317
    x45       c28                           471
    x45       c29                           999
    x45       c35                           735
    x45       c40                           802
    x46       obj1                            1
    x46       c17                           116
    x46       c47                           839
    x46       c49                           416
    x47       obj1                            1
    x47       c5                            494
    x47       c11                           822
    x47       c19                           818
    x47       c21                           585
    x47       c23                           261
    x47       c29                           195
    x48       obj1                            1
    x48       c7                            187
    x48       c23                           348
    x48       c26                           250
    x48       c27                           867
    x48       c35                           535
    x48       c40                           367
    x48       c41                           498
    x48       c45                           262
    x49       obj1                            1
    x49       c5                            596
    x49       c13                           379
    x49       c14                           557
    x49       c30                           991
    x49       c31                           155
    x50       obj1                            1
    x50       c9                            595
    x50       c10                           886
    x50       c45                           694
    x50       c46                           495
    MARK0001  'MARKER'                 'INTEND'
RHS
    rhs       c1                           1000
    rhs       c2                           1704
    rhs       c3                           2342
    rhs       c4                            683
    rhs       c5                            823
    rhs       c6                           1038
    rhs       c7                            724
    rhs       c8                           1078
    rhs       c9                           2306
    rhs       c10                          1733
    rhs       c11                          1241
    rhs       c12                           570
    rhs       c13                          1310
    rhs       c14                          1051
    rhs       c15                          1141
    rhs       c16                          1551
    rhs       c17                          1427
    rhs       c18                           944
    rhs       c19                          1964
    rhs       c20                           890
    rhs       c21                          1871
    rhs       c22                          1246
    rhs       c23                          1420
    rhs       c24                           579
    rhs       c25                          1563
    rhs       c26                          1424
    rhs       c27                          2242
    rhs       c28                          1159
    rhs       c29                          1712
    rhs       c30                          1355
    rhs       c31                           892
    rhs       c32                           716
    rhs       c33                           612
    rhs       c34                          1588
    rhs       c35                          2245
    rhs       c36                           647
    rhs       c37                          1017
    rhs       c38                           888
    rhs       c39                          1354
    rhs       c40                          2257
    rhs       c41                          2337
    rhs       c42                           710
    rhs       c43                          1429
    rhs       c44                          1292
    rhs       c45                          1765
    rhs       c46                           810
    rhs       c47                          1338
    rhs       c48                           818
    rhs       c49                          1060
    rhs       c50                           741
BOUNDS
 LI bnd       x1        0
 LI bnd       x2        0
 LI bnd       x3        0
 LI bnd       x4        0
 LI bnd       x5        0
 LI bnd       x6        0
 LI bnd       x7        0
 LI bnd       x8        0
 LI bnd       x9        0
 LI bnd       x10       0
 LI bnd       x11       0
 LI bnd       x12       0
 LI bnd       x13       0
 LI bnd       x14       0
 LI bnd       x15       0
 LI bnd       x16       0
 LI bnd       x17       0
 LI bnd       x18       0
 LI bnd       x19       0
 LI bnd       x20       0
 LI bnd       x21       0
 LI bnd       x22       0
 LI bnd       x23       0
 LI bnd       x24       0
 LI bnd       x25       0
 LI bnd       x26       0
 LI bnd       x27       0
 LI bnd       x28       0
 LI bnd       x29       0
 LI bnd       x30       0
 LI bnd       x31       0
 LI bnd       x32       0
 LI bnd       x33       0
 LI bnd       x34       0
 LI bnd       x35       0
 LI bnd       x36       0
 LI bnd       x37       0
 LI bnd       x38       0
 LI bnd       x39       0
 LI bnd       x40       0
 LI bnd       x41       0
 LI bnd       x42       0
 LI bnd       x43       0
 LI bnd       x44       0
 LI bnd       x45       0
 LI bnd       x46       0
 LI bnd       x47       0
 LI bnd       x48       0
 LI bnd       x49       0
 LI bnd       x50       0
ENDATA
